db/inputs/13092106931928612542747180917431927.smt2
(set-logic QF_FP)
(declare-const x0 (_ FloatingPoint 8 24))
(declare-const x1 (_ FloatingPoint 8 24))
(declare-const x2 (_ FloatingPoint 8 24))
(declare-const x3 (_ FloatingPoint 8 24))
(declare-const x4 (_ FloatingPoint 8 24))
(declare-const x5 (_ FloatingPoint 8 24))
(declare-const x6 (_ FloatingPoint 8 24))
(declare-const x7 (_ FloatingPoint 8 24))
(declare-const x8 (_ FloatingPoint 8 24))
(declare-const x9 (_ FloatingPoint 8 24))
(declare-const x10 (_ FloatingPoint 8 24))
(declare-const x11 (_ FloatingPoint 8 24))
(assert (fp.lt (fp.add RNE x10 x2) (fp.add RNE x4 x5)))
(assert (fp.lt (fp.sub RNE x4 x11) (fp.neg x4)))
(assert (fp.eq (fp.div RNE x9 x1) (fp.sub RNE x0 x1)))
(assert (fp.lt (fp.sub RNE x7 x1) (fp.add RNE x7 x9)))
(assert (fp.eq (fp.div RNE x2 x3) (fp.neg x11)))
(assert (fp.leq (fp.mul RNE x1 x8) (fp.add RNE x2 x11)))
(assert (fp.eq (fp.sub RNE x1 x7) (fp.add RNE x7 x4)))
(assert (fp.gt (fp.add RNE x7 x3) (fp.sub RNE x2 x7)))
(assert (fp.eq (fp.sub RNE x6 x6) (fp.sub RNE x6 x4)))
(assert (fp.lt (fp.div RNE x3 x0) (fp.add RNE x7 x11)))
(assert (fp.gt (fp.sub RNE x9 x1) (fp.add RNE x3 x10)))
(assert (fp.lt (fp.sub RNE x11 x11) (fp.mul RNE x10 x11)))
(assert (fp.eq (fp.sub RNE x7 x10) (fp.neg x4)))
(assert (fp.eq (fp.div RNE x0 x2) (fp.add RNE x11 x3)))
(assert (fp.eq (fp.mul RNE x4 x9) (fp.add RNE x1 x5)))
(assert (fp.geq (fp.div RNE x9 x4) (fp.mul RNE x10 x9)))
(assert (fp.leq (fp.div RNE x2 x5) (fp.add RNE x5 x0)))
(assert (fp.leq (fp.sub RNE x8 x4) (fp.neg x4)))
(assert (fp.leq (fp.add RNE x4 x8) (fp.div RNE x10 x2)))
(assert (fp.eq (fp.mul RNE x8 x1) (fp.div RNE x3 x4)))
(check-sat)
