db/data/13092106931928612542747180917431927.z3.out
sat
-------------------
1043.271100899
